\ Model Assignment_2b
\ LP format - for model browsing. Use MPS format to capture full model detail.
Minimize
  10000 x[0] + 16.1245154965971 x[1] + 15.13274595042156 x[2] + 19 x[3]
   + 18.11077027627483 x[4] + 20.09975124224178 x[5]
   + 1.414213562373095 x[6] + 16.1245154965971 x[0] + 10000 x[1] + x[2]
   + 3.605551275463989 x[3] + 4.47213595499958 x[4]
   + 5.656854249492381 x[5] + 15.03329637837291 x[6]
   + 15.13274595042156 x[0] + x[1] + 10000 x[2] + 4.47213595499958 x[3]
   + 5 x[4] + 6.403124237432849 x[5] + 14.0356688476182 x[6] + 19 x[0]
   + 3.605551275463989 x[1] + 4.47213595499958 x[2] + 10000 x[3]
   + 2.23606797749979 x[4] + 2.23606797749979 x[5] + 18.02775637731995 x[6]
   + 18.11077027627483 x[0] + 4.47213595499958 x[1] + 5 x[2]
   + 2.23606797749979 x[3] + 10000 x[4] + 2 x[5] + 17.26267650163207 x[6]
   + 20.09975124224178 x[0] + 5.656854249492381 x[1]
   + 6.403124237432849 x[2] + 2.23606797749979 x[3] + 2 x[4] + 10000 x[5]
   + 19.23538406167134 x[6] + 1.414213562373095 x[0]
   + 15.03329637837291 x[1] + 14.0356688476182 x[2]
   + 18.02775637731995 x[3] + 17.26267650163207 x[4]
   + 19.23538406167134 x[5] + 10000 x[6] + 0 z[0] + 0 z[1] + 0 z[2]
   + 0 z[3] + 0 z[4] + 0 z[5] + 0 z[6] + 0 t[0,6] + 0 t[1,6] + 0 t[2,6]
   + 0 t[3,6] + 0 t[4,6] + 0 t[5,6] + 0 t[6,6] + 0 u[0,0] + 0 u[0,1]
   + 0 u[0,2] + 0 u[0,3] + 0 u[0,4] + 0 u[0,5] + 0 u[0,6] + 0 u[1,0]
   + 0 u[1,1] + 0 u[1,2] + 0 u[1,3] + 0 u[1,4] + 0 u[1,5] + 0 u[1,6]
   + 0 u[2,0] + 0 u[2,1] + 0 u[2,2] + 0 u[2,3] + 0 u[2,4] + 0 u[2,5]
   + 0 u[2,6] + 0 u[3,0] + 0 u[3,1] + 0 u[3,2] + 0 u[3,3] + 0 u[3,4]
   + 0 u[3,5] + 0 u[3,6] + 0 u[4,0] + 0 u[4,1] + 0 u[4,2] + 0 u[4,3]
   + 0 u[4,4] + 0 u[4,5] + 0 u[4,6] + 0 u[5,0] + 0 u[5,1] + 0 u[5,2]
   + 0 u[5,3] + 0 u[5,4] + 0 u[5,5] + 0 u[5,6] + 0 u[6,0] + 0 u[6,1]
   + 0 u[6,2] + 0 u[6,3] + 0 u[6,4] + 0 u[6,5] + 0 u[6,6]
Subject To
 R0: x[1] + x[1] + x[1] + x[1] + x[1] + x[1] + x[1] = 2
 R1: x[0] + x[1] + x[2] + x[3] + x[4] + x[5] + x[6] = 2
 R2: x[2] + x[2] + x[2] + x[2] + x[2] + x[2] + x[2] = 2
 R3: x[0] + x[1] + x[2] + x[3] + x[4] + x[5] + x[6] = 2
 R4: x[3] + x[3] + x[3] + x[3] + x[3] + x[3] + x[3] = 2
 R5: x[0] + x[1] + x[2] + x[3] + x[4] + x[5] + x[6] = 2
 R6: x[4] + x[4] + x[4] + x[4] + x[4] + x[4] + x[4] = 2
 R7: x[0] + x[1] + x[2] + x[3] + x[4] + x[5] + x[6] = 2
 R8: x[5] + x[5] + x[5] + x[5] + x[5] + x[5] + x[5] = 2
 R9: x[0] + x[1] + x[2] + x[3] + x[4] + x[5] + x[6] = 2
 R10: x[6] + x[6] + x[6] + x[6] + x[6] + x[6] + x[6] = 2
 R11: x[0] + x[1] + x[2] + x[3] + x[4] + x[5] + x[6] = 2
 R12: x[0] + x[0] + x[0] + x[0] + x[0] + x[0] + x[0] = 2
 R13: x[0] + x[1] + x[2] + x[3] + x[4] + x[5] + x[6] = 2
 R14: x[2] + x[2] + x[2] + x[2] + x[2] + x[2] + x[2] = 2
 R15: x[0] + x[1] + x[2] + x[3] + x[4] + x[5] + x[6] = 2
 R16: x[3] + x[3] + x[3] + x[3] + x[3] + x[3] + x[3] = 2
 R17: x[0] + x[1] + x[2] + x[3] + x[4] + x[5] + x[6] = 2
 R18: x[4] + x[4] + x[4] + x[4] + x[4] + x[4] + x[4] = 2
 R19: x[0] + x[1] + x[2] + x[3] + x[4] + x[5] + x[6] = 2
 R20: x[5] + x[5] + x[5] + x[5] + x[5] + x[5] + x[5] = 2
 R21: x[0] + x[1] + x[2] + x[3] + x[4] + x[5] + x[6] = 2
 R22: x[6] + x[6] + x[6] + x[6] + x[6] + x[6] + x[6] = 2
 R23: x[0] + x[1] + x[2] + x[3] + x[4] + x[5] + x[6] = 2
 R24: x[0] + x[0] + x[0] + x[0] + x[0] + x[0] + x[0] = 2
 R25: x[0] + x[1] + x[2] + x[3] + x[4] + x[5] + x[6] = 2
 R26: x[1] + x[1] + x[1] + x[1] + x[1] + x[1] + x[1] = 2
 R27: x[0] + x[1] + x[2] + x[3] + x[4] + x[5] + x[6] = 2
 R28: x[3] + x[3] + x[3] + x[3] + x[3] + x[3] + x[3] = 2
 R29: x[0] + x[1] + x[2] + x[3] + x[4] + x[5] + x[6] = 2
 R30: x[4] + x[4] + x[4] + x[4] + x[4] + x[4] + x[4] = 2
 R31: x[0] + x[1] + x[2] + x[3] + x[4] + x[5] + x[6] = 2
 R32: x[5] + x[5] + x[5] + x[5] + x[5] + x[5] + x[5] = 2
 R33: x[0] + x[1] + x[2] + x[3] + x[4] + x[5] + x[6] = 2
 R34: x[6] + x[6] + x[6] + x[6] + x[6] + x[6] + x[6] = 2
 R35: x[0] + x[1] + x[2] + x[3] + x[4] + x[5] + x[6] = 2
 R36: x[0] + x[0] + x[0] + x[0] + x[0] + x[0] + x[0] = 2
 R37: x[0] + x[1] + x[2] + x[3] + x[4] + x[5] + x[6] = 2
 R38: x[1] + x[1] + x[1] + x[1] + x[1] + x[1] + x[1] = 2
 R39: x[0] + x[1] + x[2] + x[3] + x[4] + x[5] + x[6] = 2
 R40: x[2] + x[2] + x[2] + x[2] + x[2] + x[2] + x[2] = 2
 R41: x[0] + x[1] + x[2] + x[3] + x[4] + x[5] + x[6] = 2
 R42: x[4] + x[4] + x[4] + x[4] + x[4] + x[4] + x[4] = 2
 R43: x[0] + x[1] + x[2] + x[3] + x[4] + x[5] + x[6] = 2
 R44: x[5] + x[5] + x[5] + x[5] + x[5] + x[5] + x[5] = 2
 R45: x[0] + x[1] + x[2] + x[3] + x[4] + x[5] + x[6] = 2
 R46: x[6] + x[6] + x[6] + x[6] + x[6] + x[6] + x[6] = 2
 R47: x[0] + x[1] + x[2] + x[3] + x[4] + x[5] + x[6] = 2
 R48: x[0] + x[0] + x[0] + x[0] + x[0] + x[0] + x[0] = 2
 R49: x[0] + x[1] + x[2] + x[3] + x[4] + x[5] + x[6] = 2
 R50: x[1] + x[1] + x[1] + x[1] + x[1] + x[1] + x[1] = 2
 R51: x[0] + x[1] + x[2] + x[3] + x[4] + x[5] + x[6] = 2
 R52: x[2] + x[2] + x[2] + x[2] + x[2] + x[2] + x[2] = 2
 R53: x[0] + x[1] + x[2] + x[3] + x[4] + x[5] + x[6] = 2
 R54: x[3] + x[3] + x[3] + x[3] + x[3] + x[3] + x[3] = 2
 R55: x[0] + x[1] + x[2] + x[3] + x[4] + x[5] + x[6] = 2
 R56: x[5] + x[5] + x[5] + x[5] + x[5] + x[5] + x[5] = 2
 R57: x[0] + x[1] + x[2] + x[3] + x[4] + x[5] + x[6] = 2
 R58: x[6] + x[6] + x[6] + x[6] + x[6] + x[6] + x[6] = 2
 R59: x[0] + x[1] + x[2] + x[3] + x[4] + x[5] + x[6] = 2
 R60: x[0] + x[0] + x[0] + x[0] + x[0] + x[0] + x[0] = 2
 R61: x[0] + x[1] + x[2] + x[3] + x[4] + x[5] + x[6] = 2
 R62: x[1] + x[1] + x[1] + x[1] + x[1] + x[1] + x[1] = 2
 R63: x[0] + x[1] + x[2] + x[3] + x[4] + x[5] + x[6] = 2
 R64: x[2] + x[2] + x[2] + x[2] + x[2] + x[2] + x[2] = 2
 R65: x[0] + x[1] + x[2] + x[3] + x[4] + x[5] + x[6] = 2
 R66: x[3] + x[3] + x[3] + x[3] + x[3] + x[3] + x[3] = 2
 R67: x[0] + x[1] + x[2] + x[3] + x[4] + x[5] + x[6] = 2
 R68: x[4] + x[4] + x[4] + x[4] + x[4] + x[4] + x[4] = 2
 R69: x[0] + x[1] + x[2] + x[3] + x[4] + x[5] + x[6] = 2
 R70: x[6] + x[6] + x[6] + x[6] + x[6] + x[6] + x[6] = 2
 R71: x[0] + x[1] + x[2] + x[3] + x[4] + x[5] + x[6] = 2
 R72: x[0] + x[0] + x[0] + x[0] + x[0] + x[0] + x[0] = 2
 R73: x[0] + x[1] + x[2] + x[3] + x[4] + x[5] + x[6] = 2
 R74: x[1] + x[1] + x[1] + x[1] + x[1] + x[1] + x[1] = 2
 R75: x[0] + x[1] + x[2] + x[3] + x[4] + x[5] + x[6] = 2
 R76: x[2] + x[2] + x[2] + x[2] + x[2] + x[2] + x[2] = 2
 R77: x[0] + x[1] + x[2] + x[3] + x[4] + x[5] + x[6] = 2
 R78: x[3] + x[3] + x[3] + x[3] + x[3] + x[3] + x[3] = 2
 R79: x[0] + x[1] + x[2] + x[3] + x[4] + x[5] + x[6] = 2
 R80: x[4] + x[4] + x[4] + x[4] + x[4] + x[4] + x[4] = 2
 R81: x[0] + x[1] + x[2] + x[3] + x[4] + x[5] + x[6] = 2
 R82: x[5] + x[5] + x[5] + x[5] + x[5] + x[5] + x[5] = 2
 R83: x[0] + x[1] + x[2] + x[3] + x[4] + x[5] + x[6] = 2
 R84: x[0] + x[0] + x[1] + x[0] + x[1] + x[2] + x[0] + x[1] + x[2] + x[3]
   + x[0] + x[1] + x[2] + x[3] + x[4] + x[0] + x[1] + x[2] + x[3] + x[4]
   + x[5] <= 6
 R85: x[0] + x[0] + x[1] + x[0] + x[1] + x[2] + x[0] + x[1] + x[2] + x[3]
   + x[0] + x[1] + x[2] + x[3] + x[4] + x[0] + x[1] + x[2] + x[3] + x[4]
   + x[5] <= 6
 R86: x[0] + x[0] + x[1] + x[0] + x[1] + x[2] + x[0] + x[1] + x[2] + x[3]
   + x[0] + x[1] + x[2] + x[3] + x[4] + x[0] + x[1] + x[2] + x[3] + x[4]
   + x[5] <= 6
 R87: x[0] + x[0] + x[1] + x[0] + x[1] + x[2] + x[0] + x[1] + x[2] + x[3]
   + x[0] + x[1] + x[2] + x[3] + x[4] + x[0] + x[1] + x[2] + x[3] + x[4]
   + x[5] <= 6
 R88: x[0] + x[0] + x[1] + x[0] + x[1] + x[2] + x[0] + x[1] + x[2] + x[3]
   + x[0] + x[1] + x[2] + x[3] + x[4] + x[0] + x[1] + x[2] + x[3] + x[4]
   + x[5] <= 6
 R89: x[0] + x[0] + x[1] + x[0] + x[1] + x[2] + x[0] + x[1] + x[2] + x[3]
   + x[0] + x[1] + x[2] + x[3] + x[4] + x[0] + x[1] + x[2] + x[3] + x[4]
   + x[5] <= 6
 R90: x[0] + x[0] + x[1] + x[0] + x[1] + x[2] + x[0] + x[1] + x[2] + x[3]
   + x[0] + x[1] + x[2] + x[3] + x[4] + x[0] + x[1] + x[2] + x[3] + x[4]
   + x[5] <= 6
 R91: x[0] + x[0] + x[1] + x[0] + x[1] + x[2] + x[0] + x[1] + x[2] + x[3]
   + x[0] + x[1] + x[2] + x[3] + x[4] + x[0] + x[1] + x[2] + x[3] + x[4]
   + x[5] <= 6
 R92: x[0] + x[0] + x[1] + x[0] + x[1] + x[2] + x[0] + x[1] + x[2] + x[3]
   + x[0] + x[1] + x[2] + x[3] + x[4] + x[0] + x[1] + x[2] + x[3] + x[4]
   + x[5] <= 6
 R93: x[0] + x[0] + x[1] + x[0] + x[1] + x[2] + x[0] + x[1] + x[2] + x[3]
   + x[0] + x[1] + x[2] + x[3] + x[4] + x[0] + x[1] + x[2] + x[3] + x[4]
   + x[5] <= 6
 R94: x[0] + x[0] + x[1] + x[0] + x[1] + x[2] + x[0] + x[1] + x[2] + x[3]
   + x[0] + x[1] + x[2] + x[3] + x[4] + x[0] + x[1] + x[2] + x[3] + x[4]
   + x[5] <= 6
 R95: x[0] + x[0] + x[1] + x[0] + x[1] + x[2] + x[0] + x[1] + x[2] + x[3]
   + x[0] + x[1] + x[2] + x[3] + x[4] + x[0] + x[1] + x[2] + x[3] + x[4]
   + x[5] <= 6
 R96: x[0] + x[0] + x[1] + x[0] + x[1] + x[2] + x[0] + x[1] + x[2] + x[3]
   + x[0] + x[1] + x[2] + x[3] + x[4] + x[0] + x[1] + x[2] + x[3] + x[4]
   + x[5] <= 6
 R97: x[0] + x[0] + x[1] + x[0] + x[1] + x[2] + x[0] + x[1] + x[2] + x[3]
   + x[0] + x[1] + x[2] + x[3] + x[4] + x[0] + x[1] + x[2] + x[3] + x[4]
   + x[5] <= 6
 R98: x[0] + x[0] + x[1] + x[0] + x[1] + x[2] + x[0] + x[1] + x[2] + x[3]
   + x[0] + x[1] + x[2] + x[3] + x[4] + x[0] + x[1] + x[2] + x[3] + x[4]
   + x[5] <= 6
 R99: x[0] + x[0] + x[1] + x[0] + x[1] + x[2] + x[0] + x[1] + x[2] + x[3]
   + x[0] + x[1] + x[2] + x[3] + x[4] + x[0] + x[1] + x[2] + x[3] + x[4]
   + x[5] <= 6
 R100: x[0] + x[0] + x[1] + x[0] + x[1] + x[2] + x[0] + x[1] + x[2] + x[3]
   + x[0] + x[1] + x[2] + x[3] + x[4] + x[0] + x[1] + x[2] + x[3] + x[4]
   + x[5] <= 6
 R101: x[0] + x[0] + x[1] + x[0] + x[1] + x[2] + x[0] + x[1] + x[2] + x[3]
   + x[0] + x[1] + x[2] + x[3] + x[4] + x[0] + x[1] + x[2] + x[3] + x[4]
   + x[5] <= 6
 R102: x[0] + x[0] + x[1] + x[0] + x[1] + x[2] + x[0] + x[1] + x[2] + x[3]
   + x[0] + x[1] + x[2] + x[3] + x[4] + x[0] + x[1] + x[2] + x[3] + x[4]
   + x[5] <= 6
 R103: x[0] + x[0] + x[1] + x[0] + x[1] + x[2] + x[0] + x[1] + x[2] + x[3]
   + x[0] + x[1] + x[2] + x[3] + x[4] + x[0] + x[1] + x[2] + x[3] + x[4]
   + x[5] <= 6
 R104: x[0] + x[0] + x[1] + x[0] + x[1] + x[2] + x[0] + x[1] + x[2] + x[3]
   + x[0] + x[1] + x[2] + x[3] + x[4] + x[0] + x[1] + x[2] + x[3] + x[4]
   + x[5] <= 6
 R105: x[0] + x[0] + x[1] + x[0] + x[1] + x[2] + x[0] + x[1] + x[2] + x[3]
   + x[0] + x[1] + x[2] + x[3] + x[4] + x[0] + x[1] + x[2] + x[3] + x[4]
   + x[5] <= 6
 R106: x[0] + x[0] + x[1] + x[0] + x[1] + x[2] + x[0] + x[1] + x[2] + x[3]
   + x[0] + x[1] + x[2] + x[3] + x[4] + x[0] + x[1] + x[2] + x[3] + x[4]
   + x[5] <= 6
 R107: x[0] + x[0] + x[1] + x[0] + x[1] + x[2] + x[0] + x[1] + x[2] + x[3]
   + x[0] + x[1] + x[2] + x[3] + x[4] + x[0] + x[1] + x[2] + x[3] + x[4]
   + x[5] <= 6
 R108: x[0] + x[0] + x[1] + x[0] + x[1] + x[2] + x[0] + x[1] + x[2] + x[3]
   + x[0] + x[1] + x[2] + x[3] + x[4] + x[0] + x[1] + x[2] + x[3] + x[4]
   + x[5] <= 6
 R109: x[0] + x[0] + x[1] + x[0] + x[1] + x[2] + x[0] + x[1] + x[2] + x[3]
   + x[0] + x[1] + x[2] + x[3] + x[4] + x[0] + x[1] + x[2] + x[3] + x[4]
   + x[5] <= 6
 R110: x[0] + x[0] + x[1] + x[0] + x[1] + x[2] + x[0] + x[1] + x[2] + x[3]
   + x[0] + x[1] + x[2] + x[3] + x[4] + x[0] + x[1] + x[2] + x[3] + x[4]
   + x[5] <= 6
 R111: x[0] + x[0] + x[1] + x[0] + x[1] + x[2] + x[0] + x[1] + x[2] + x[3]
   + x[0] + x[1] + x[2] + x[3] + x[4] + x[0] + x[1] + x[2] + x[3] + x[4]
   + x[5] <= 6
 R112: x[0] + x[0] + x[1] + x[0] + x[1] + x[2] + x[0] + x[1] + x[2] + x[3]
   + x[0] + x[1] + x[2] + x[3] + x[4] + x[0] + x[1] + x[2] + x[3] + x[4]
   + x[5] <= 6
 R113: x[0] + x[0] + x[1] + x[0] + x[1] + x[2] + x[0] + x[1] + x[2] + x[3]
   + x[0] + x[1] + x[2] + x[3] + x[4] + x[0] + x[1] + x[2] + x[3] + x[4]
   + x[5] <= 6
 R114: x[0] + x[0] + x[1] + x[0] + x[1] + x[2] + x[0] + x[1] + x[2] + x[3]
   + x[0] + x[1] + x[2] + x[3] + x[4] + x[0] + x[1] + x[2] + x[3] + x[4]
   + x[5] <= 6
 R115: x[0] + x[0] + x[1] + x[0] + x[1] + x[2] + x[0] + x[1] + x[2] + x[3]
   + x[0] + x[1] + x[2] + x[3] + x[4] + x[0] + x[1] + x[2] + x[3] + x[4]
   + x[5] <= 6
 R116: x[0] + x[0] + x[1] + x[0] + x[1] + x[2] + x[0] + x[1] + x[2] + x[3]
   + x[0] + x[1] + x[2] + x[3] + x[4] + x[0] + x[1] + x[2] + x[3] + x[4]
   + x[5] <= 6
 R117: x[0] + x[0] + x[1] + x[0] + x[1] + x[2] + x[0] + x[1] + x[2] + x[3]
   + x[0] + x[1] + x[2] + x[3] + x[4] + x[0] + x[1] + x[2] + x[3] + x[4]
   + x[5] <= 6
 R118: x[0] + x[0] + x[1] + x[0] + x[1] + x[2] + x[0] + x[1] + x[2] + x[3]
   + x[0] + x[1] + x[2] + x[3] + x[4] + x[0] + x[1] + x[2] + x[3] + x[4]
   + x[5] <= 6
 R119: x[0] + x[0] + x[1] + x[0] + x[1] + x[2] + x[0] + x[1] + x[2] + x[3]
   + x[0] + x[1] + x[2] + x[3] + x[4] + x[0] + x[1] + x[2] + x[3] + x[4]
   + x[5] <= 6
 R120: x[0] + x[0] + x[1] + x[0] + x[1] + x[2] + x[0] + x[1] + x[2] + x[3]
   + x[0] + x[1] + x[2] + x[3] + x[4] + x[0] + x[1] + x[2] + x[3] + x[4]
   + x[5] <= 6
 R121: x[0] + x[0] + x[1] + x[0] + x[1] + x[2] + x[0] + x[1] + x[2] + x[3]
   + x[0] + x[1] + x[2] + x[3] + x[4] + x[0] + x[1] + x[2] + x[3] + x[4]
   + x[5] <= 6
 R122: x[0] + x[0] + x[1] + x[0] + x[1] + x[2] + x[0] + x[1] + x[2] + x[3]
   + x[0] + x[1] + x[2] + x[3] + x[4] + x[0] + x[1] + x[2] + x[3] + x[4]
   + x[5] <= 6
 R123: x[0] + x[0] + x[1] + x[0] + x[1] + x[2] + x[0] + x[1] + x[2] + x[3]
   + x[0] + x[1] + x[2] + x[3] + x[4] + x[0] + x[1] + x[2] + x[3] + x[4]
   + x[5] <= 6
 R124: x[0] + x[0] + x[1] + x[0] + x[1] + x[2] + x[0] + x[1] + x[2] + x[3]
   + x[0] + x[1] + x[2] + x[3] + x[4] + x[0] + x[1] + x[2] + x[3] + x[4]
   + x[5] <= 6
 R125: x[0] + x[0] + x[1] + x[0] + x[1] + x[2] + x[0] + x[1] + x[2] + x[3]
   + x[0] + x[1] + x[2] + x[3] + x[4] + x[0] + x[1] + x[2] + x[3] + x[4]
   + x[5] <= 6
 R126: 10000 x[0] - t[6,0] <= 0
 R127: 10000 x[0] - t[6,0] <= 9918.875484503404
 R128: 10000 x[0] - t[6,0] <= 9969.867254049579
 R129: 10000 x[0] - t[6,0] <= 9360
 R130: 10000 x[0] - t[6,0] <= 9726.889229723725
 R131: 10000 x[0] - t[6,0] <= 9445.900248757758
 R132: 10000 x[0] - t[6,0] <= 9550.585786437627
 R133: 10000 x[0] - t[6,1] <= 9983.875484503404
 R134: 10000 x[1] - t[6,1] <= -65
 R135: 10000 x[1] - t[6,1] <= 9984
 R136: 10000 x[1] - t[6,1] <= 9375.394448724535
 R137: 10000 x[1] - t[6,1] <= 9740.527864045
 R138: 10000 x[1] - t[6,1] <= 9460.343145750507
 R139: 10000 x[1] - t[6,1] <= 9536.966703621627
 R140: 10000 x[0] - t[6,2] <= 9984.867254049579
 R141: 10000 x[1] - t[6,2] <= 9934
 R142: 10000 x[2] - t[6,2] <= -15
 R143: 10000 x[2] - t[6,2] <= 9374.527864045
 R144: 10000 x[2] - t[6,2] <= 9740
 R145: 10000 x[2] - t[6,2] <= 9459.596875762567
 R146: 10000 x[2] - t[6,2] <= 9537.964331152381
 R147: 10000 x[0] - t[6,3] <= 9981
 R148: 10000 x[1] - t[6,3] <= 9931.394448724535
 R149: 10000 x[2] - t[6,3] <= 9980.527864045
 R150: 10000 x[3] - t[6,3] <= -621
 R151: 10000 x[3] - t[6,3] <= 9742.763932022501
 R152: 10000 x[3] - t[6,3] <= 9463.763932022501
 R153: 10000 x[3] - t[6,3] <= 9533.97224362268
 R154: 10000 x[0] - t[6,4] <= 9981.889229723725
 R155: 10000 x[1] - t[6,4] <= 9930.527864045
 R156: 10000 x[2] - t[6,4] <= 9980
 R157: 10000 x[3] - t[6,4] <= 9376.763932022501
 R158: 10000 x[4] - t[6,4] <= -255
 R159: 10000 x[4] - t[6,4] <= 9464
 R160: 10000 x[4] - t[6,4] <= 9534.737323498368
 R161: 10000 x[0] - t[6,5] <= 9979.900248757758
 R162: 10000 x[1] - t[6,5] <= 9929.343145750508
 R163: 10000 x[2] - t[6,5] <= 9978.596875762567
 R164: 10000 x[3] - t[6,5] <= 9376.763932022501
 R165: 10000 x[4] - t[6,5] <= 9743
 R166: 10000 x[5] - t[6,5] <= -534
 R167: 10000 x[5] - t[6,5] <= 9532.764615938329
 R168: 10000 x[0] - t[6,6] <= 9998.585786437627
 R169: 10000 x[1] - t[6,6] <= 9919.966703621627
 R170: 10000 x[2] - t[6,6] <= 9970.964331152381
 R171: 10000 x[3] - t[6,6] <= 9360.97224362268
 R172: 10000 x[4] - t[6,6] <= 9727.737323498368
 R173: 10000 x[5] - t[6,6] <= 9446.764615938329
 R174: 10000 x[6] - t[6,6] <= -448
 R175: 10000 x[0] <= 0
 R176: 10000 x[0] + t[6,0] - t[6,1] <= 9983.875484503404
 R177: 10000 x[0] + t[6,0] - t[6,2] <= 9984.867254049579
 R178: 10000 x[0] + t[6,0] - t[6,3] <= 9981
 R179: 10000 x[0] + t[6,0] - t[6,4] <= 9981.889229723725
 R180: 10000 x[0] + t[6,0] - t[6,5] <= 9979.900248757758
 R181: 10000 x[0] + t[6,0] - t[6,6] <= 9998.585786437627
 R182: 10000 x[0] - t[6,0] + t[6,1] <= 9893.875484503404
 R183: 10000 x[1] <= -90
 R184: 10000 x[1] + t[6,1] - t[6,2] <= 9909
 R185: 10000 x[1] + t[6,1] - t[6,3] <= 9906.394448724535
 R186: 10000 x[1] + t[6,1] - t[6,4] <= 9905.527864045
 R187: 10000 x[1] + t[6,1] - t[6,5] <= 9904.343145750508
 R188: 10000 x[1] + t[6,1] - t[6,6] <= 9894.966703621627
 R189: 10000 x[0] - t[6,0] + t[6,2] <= 9894.867254049579
 R190: 10000 x[1] - t[6,1] + t[6,2] <= 9909
 R191: 10000 x[2] <= -90
 R192: 10000 x[2] + t[6,2] - t[6,3] <= 9905.527864045
 R193: 10000 x[2] + t[6,2] - t[6,4] <= 9905
 R194: 10000 x[2] + t[6,2] - t[6,5] <= 9903.596875762567
 R195: 10000 x[2] + t[6,2] - t[6,6] <= 9895.964331152381
 R196: 10000 x[0] - t[6,0] + t[6,3] <= 9891
 R197: 10000 x[1] - t[6,1] + t[6,3] <= 9906.394448724535
 R198: 10000 x[2] - t[6,2] + t[6,3] <= 9905.527864045
 R199: 10000 x[3] <= -90
 R200: 10000 x[3] + t[6,3] - t[6,4] <= 9907.763932022501
 R201: 10000 x[3] + t[6,3] - t[6,5] <= 9907.763932022501
 R202: 10000 x[3] + t[6,3] - t[6,6] <= 9891.97224362268
 R203: 10000 x[0] - t[6,0] + t[6,4] <= 9891.889229723725
 R204: 10000 x[1] - t[6,1] + t[6,4] <= 9905.527864045
 R205: 10000 x[2] - t[6,2] + t[6,4] <= 9905
 R206: 10000 x[3] - t[6,3] + t[6,4] <= 9907.763932022501
 R207: 10000 x[4] <= -90
 R208: 10000 x[4] + t[6,4] - t[6,5] <= 9908
 R209: 10000 x[4] + t[6,4] - t[6,6] <= 9892.737323498368
 R210: 10000 x[0] - t[6,0] + t[6,5] <= 9889.900248757758
 R211: 10000 x[1] - t[6,1] + t[6,5] <= 9904.343145750508
 R212: 10000 x[2] - t[6,2] + t[6,5] <= 9903.596875762567
 R213: 10000 x[3] - t[6,3] + t[6,5] <= 9907.763932022501
 R214: 10000 x[4] - t[6,4] + t[6,5] <= 9908
 R215: 10000 x[5] <= -90
 R216: 10000 x[5] + t[6,5] - t[6,6] <= 9890.764615938329
 R217: 10000 x[0] - t[6,0] + t[6,6] <= 9908.585786437627
 R218: 10000 x[1] - t[6,1] + t[6,6] <= 9894.966703621627
 R219: 10000 x[2] - t[6,2] + t[6,6] <= 9895.964331152381
 R220: 10000 x[3] - t[6,3] + t[6,6] <= 9891.97224362268
 R221: 10000 x[4] - t[6,4] + t[6,6] <= 9892.737323498368
 R222: 10000 x[5] - t[6,5] + t[6,6] <= 9890.764615938329
 R223: 10000 x[6] <= -90
 R224: t[6,6] >= 0
 R225: t[6,6] >= 65
 R226: t[6,6] >= 15
 R227: t[6,6] >= 621
 R228: t[6,6] >= 255
 R229: t[6,6] >= 534
 R230: t[6,6] >= 448
 R231: t[6,6] <= 505
 R232: t[6,0] >= 0
 R233: t[6,1] >= 0
 R234: t[6,2] >= 0
 R235: t[6,3] >= 0
 R236: t[6,4] >= 0
 R237: t[6,5] >= 0
 R238: t[6,6] >= 0
Bounds
Binaries
 x[0] x[1] x[2] x[3] x[4] x[5] x[6] x[0] x[1] x[2] x[3] x[4] x[5] x[6] x[0]
 x[1] x[2] x[3] x[4] x[5] x[6] x[0] x[1] x[2] x[3] x[4] x[5] x[6] x[0] x[1]
 x[2] x[3] x[4] x[5] x[6] x[0] x[1] x[2] x[3] x[4] x[5] x[6] x[0] x[1] x[2]
 x[3] x[4] x[5] x[6]
End
